750
100 100
1 80 690
2 80 671
3 80 654
4 80 152
5 80 297
6 80 583
7 80 836
8 80 426
9 80 84
10 80 692
11 80 737
12 80 748
13 80 311
14 80 868
15 80 107
16 80 366
17 80 352
18 80 877
19 79 988
20 79 616
21 79 91
22 79 651
23 79 666
24 79 815
25 79 764
26 79 6
27 79 352
28 79 71
29 79 723
30 79 34
31 79 400
32 79 31
33 79 781
34 79 62
35 79 388
36 78 317
37 78 42
38 78 246
39 78 210
40 78 684
41 78 185
42 78 297
43 78 648
44 78 199
45 78 878
46 77 993
47 77 715
48 77 16
49 77 898
50 77 263
51 77 544
52 77 963
53 77 860
54 76 365
55 76 331
56 76 268
57 76 923
58 76 392
59 76 78
60 75 523
61 75 694
62 75 378
63 75 800
64 75 629
65 75 33
66 75 807
67 75 465
68 75 632
69 75 599
70 74 324
71 74 800
72 74 147
73 74 711
74 74 728
75 74 692
76 74 590
77 74 472
78 73 758
79 73 551
80 73 561
81 73 15
82 73 319
83 73 416
84 73 155
85 73 508
86 73 954
87 73 410
88 73 864
89 72 876
90 72 275
91 72 593
92 72 782
93 72 654
94 72 445
95 72 316
96 72 749
97 72 947
98 72 74
99 72 126
100 72 272
101 71 446
102 71 686
103 71 321
104 71 434
105 71 873
106 71 844
107 71 79
108 71 998
109 71 939
110 71 920
111 71 96
112 71 626
113 70 957
114 70 942
115 70 919
116 70 428
117 70 481
118 70 653
119 70 620
120 69 787
121 69 291
122 69 310
123 69 329
124 69 831
125 69 799
126 69 328
127 69 263
128 69 202
129 69 11
130 69 341
131 69 810
132 69 626
133 69 978
134 69 439
135 69 550
136 68 7
137 68 606
138 68 772
139 68 693
140 68 43
141 68 719
142 68 494
143 68 192
144 68 461
145 68 199
146 68 978
147 67 574
148 67 960
149 67 757
150 67 201
151 67 185
152 67 48
153 67 775
154 67 426
155 67 92
156 67 334
157 67 631
158 67 791
159 67 330
160 66 76
161 66 214
162 66 402
163 66 329
164 66 839
165 66 897
166 65 172
167 65 232
168 65 387
169 65 969
170 65 716
171 65 691
172 65 312
173 65 777
174 65 120
175 65 471
176 65 452
177 65 433
178 64 14
179 64 478
180 64 568
181 64 492
182 64 118
183 63 48
184 63 423
185 63 614
186 63 397
187 63 337
188 63 588
189 63 596
190 63 306
191 63 891
192 63 181
193 63 75
194 63 778
195 63 406
196 62 144
197 62 536
198 62 875
199 62 99
200 62 288
201 62 298
202 62 35
203 61 303
204 61 292
205 61 378
206 61 122
207 61 683
208 61 613
209 61 689
210 61 293
211 61 256
212 61 855
213 61 574
214 61 45
215 61 784
216 61 165
217 60 544
218 60 952
219 60 770
220 60 269
221 60 5
222 60 390
223 60 391
224 60 289
225 60 224
226 60 677
227 60 287
228 59 255
229 59 645
230 59 552
231 59 372
232 59 911
233 59 274
234 59 813
235 59 812
236 58 538
237 58 814
238 58 381
239 58 210
240 58 564
241 58 398
242 58 457
243 57 482
244 57 710
245 57 328
246 57 552
247 57 890
248 57 488
249 57 49
250 57 265
251 57 588
252 57 647
253 57 924
254 56 849
255 56 313
256 56 131
257 56 327
258 56 860
259 56 233
260 56 339
261 56 440
262 56 242
263 56 868
264 56 468
265 56 749
266 56 742
267 55 968
268 55 498
269 55 913
270 55 258
271 55 329
272 55 112
273 55 614
274 55 525
275 55 655
276 55 394
277 54 382
278 54 448
279 54 861
280 54 715
281 54 286
282 54 716
283 54 313
284 54 62
285 54 175
286 54 452
287 54 937
288 54 756
289 54 49
290 53 74
291 53 272
292 53 357
293 53 77
294 53 973
295 53 498
296 53 477
297 53 528
298 53 508
299 52 274
300 52 8
301 52 799
302 52 706
303 52 859
304 52 569
305 52 804
306 52 777
307 51 120
308 51 412
309 51 562
310 51 60
311 51 704
312 51 297
313 51 208
314 51 347
315 50 640
316 50 879
317 50 675
318 50 572
319 50 98
320 50 46
321 50 828
322 50 71
323 50 910
324 50 800
325 50 448
326 50 222
327 50 861
328 50 365
329 49 592
330 49 758
331 49 315
332 49 792
333 49 949
334 49 379
335 49 104
336 49 998
337 49 378
338 49 804
339 49 72
340 48 841
341 48 940
342 48 874
343 48 234
344 48 138
345 48 452
346 48 180
347 48 569
348 48 595
349 48 492
350 48 247
351 48 490
352 48 292
353 48 522
354 48 496
355 48 295
356 47 190
357 47 956
358 47 315
359 47 868
360 47 455
361 47 201
362 47 927
363 47 404
364 47 398
365 47 186
366 47 954
367 47 334
368 47 751
369 47 95
370 47 685
371 47 316
372 46 497
373 46 183
374 46 424
375 46 816
376 46 183
377 46 321
378 46 50
379 46 213
380 46 603
381 46 149
382 46 725
383 46 482
384 46 557
385 45 113
386 45 668
387 45 222
388 45 720
389 45 285
390 45 969
391 45 970
392 45 694
393 45 958
394 45 265
395 45 29
396 44 502
397 44 855
398 44 522
399 44 885
400 44 682
401 44 915
402 44 733
403 44 715
404 44 794
405 43 12
406 43 844
407 43 464
408 43 146
409 43 715
410 43 561
411 43 776
412 43 213
413 43 916
414 43 339
415 43 508
416 43 207
417 43 869
418 42 348
419 42 173
420 42 638
421 42 383
422 42 867
423 42 114
424 42 37
425 42 782
426 42 744
427 42 836
428 41 256
429 41 305
430 41 243
431 41 57
432 41 564
433 41 659
434 41 228
435 41 663
436 40 827
437 40 657
438 40 829
439 40 191
440 40 617
441 40 130
442 40 927
443 40 401
444 40 832
445 40 938
446 40 958
447 40 633
448 39 502
449 39 67
450 39 508
451 39 395
452 39 239
453 39 265
454 39 884
455 39 82
456 39 423
457 38 336
458 38 844
459 38 599
460 38 501
461 38 442
462 38 690
463 38 230
464 38 565
465 38 190
466 38 763
467 38 893
468 37 629
469 37 154
470 37 755
471 37 865
472 37 547
473 37 100
474 36 42
475 36 147
476 36 554
477 36 411
478 36 349
479 36 439
480 36 293
481 36 156
482 35 509
483 35 919
484 35 651
485 35 728
486 35 536
487 35 140
488 35 783
489 35 303
490 35 998
491 35 862
492 34 122
493 34 445
494 34 619
495 34 630
496 34 633
497 34 472
498 34 604
499 34 797
500 34 42
501 34 723
502 33 118
503 33 475
504 33 819
505 33 663
506 33 417
507 33 468
508 33 102
509 33 292
510 33 795
511 33 554
512 33 411
513 33 167
514 33 682
515 33 442
516 33 418
517 33 334
518 33 880
519 33 776
520 33 877
521 33 52
522 33 633
523 32 615
524 32 536
525 32 738
526 32 39
527 32 280
528 32 995
529 31 576
530 31 33
531 31 792
532 31 403
533 31 494
534 31 299
535 31 410
536 31 389
537 31 39
538 30 245
539 30 222
540 30 964
541 30 25
542 30 930
543 30 887
544 30 645
545 30 336
546 30 196
547 30 152
548 30 291
549 30 846
550 30 958
551 30 266
552 29 424
553 29 356
554 29 191
555 29 850
556 29 307
557 29 672
558 29 88
559 29 499
560 29 978
561 29 471
562 29 742
563 28 787
564 28 558
565 28 677
566 28 851
567 28 31
568 28 556
569 28 954
570 28 222
571 28 871
572 28 841
573 28 692
574 27 992
575 27 126
576 27 920
577 27 359
578 27 557
579 27 481
580 27 119
581 27 80
582 27 680
583 26 444
584 26 251
585 26 990
586 26 979
587 26 988
588 26 233
589 26 124
590 26 999
591 26 657
592 25 262
593 25 680
594 25 72
595 25 922
596 25 372
597 25 789
598 25 963
599 25 561
600 25 188
601 25 431
602 25 912
603 24 797
604 24 359
605 24 85
606 24 812
607 24 694
608 24 822
609 24 852
610 24 706
611 24 347
612 24 166
613 24 52
614 24 283
615 24 41
616 24 101
617 24 100
618 24 933
619 24 449
620 23 913
621 23 346
622 23 424
623 23 882
624 23 258
625 23 322
626 23 796
627 23 971
628 23 916
629 23 552
630 22 356
631 22 56
632 22 789
633 22 277
634 22 253
635 22 599
636 22 453
637 22 753
638 22 660
639 22 415
640 21 641
641 21 220
642 21 751
643 21 63
644 21 664
645 21 304
646 21 682
647 21 193
648 20 959
649 20 560
650 20 953
651 20 36
652 20 666
653 20 216
654 20 556
655 19 310
656 19 970
657 19 994
658 19 878
659 19 79
660 19 949
661 19 725
662 19 387
663 18 136
664 18 978
665 18 445
666 18 799
667 18 122
668 18 488
669 18 577
670 18 123
671 18 119
672 18 536
673 18 217
674 18 235
675 18 159
676 18 987
677 17 944
678 17 811
679 17 828
680 17 466
681 17 433
682 17 954
683 17 221
684 17 615
685 16 546
686 16 7
687 16 573
688 16 124
689 15 908
690 15 595
691 15 777
692 15 249
693 15 898
694 15 976
695 15 279
696 14 406
697 14 43
698 14 957
699 14 490
700 14 796
701 14 608
702 14 9
703 14 592
704 14 154
705 14 549
706 14 926
707 14 276
708 13 320
709 13 680
710 13 410
711 13 936
712 13 513
713 13 814
714 13 446
715 13 888
716 13 51
717 13 334
718 13 159
719 12 524
720 12 955
721 12 767
722 12 718
723 12 505
724 12 487
725 12 819
726 12 774
727 12 371
728 12 792
729 12 453
730 12 420
731 12 830
732 12 535
733 11 320
734 11 158
735 11 835
736 11 593
737 11 650
738 11 324
739 11 894
740 11 505
741 11 311
742 11 951
743 10 852
744 10 35
745 10 224
746 10 655
747 10 801
748 10 804
749 10 752
750 10 138
